robust/generate/spp_dkp_Lefebvre_et_al_2026/src/shortest_path_2_9.kp
51
63

[21.29 1.41]

[6 63]
